50, 12044
881, 794
526, 822
117, 486
663, 262
313, 1
197, 663
484, 471
139, 760
210, 374
866, 771
699, 273
13, 802
779, 730
18, 415
333, 539
905, 683
621, 193
307, 554
378, 806
390, 266
127, 804
1000, 686
54, 845
423, 336
747, 94
398, 801
981, 805
246, 446
980, 94
893, 198
671, 635
890, 292
448, 952
832, 589
797, 201
517, 656
471, 361
706, 933
410, 910
86, 515
747, 645
266, 698
488, 806
785, 977
173, 29
22, 362
124, 602
590, 305
362, 590
257, 90
